maximize
 - 20 y_1 + 1 s(0)_1 + 2 _1_x(0) - 3 t(0)_1 - 2 _1_x(0) + 2 s(1)_1 + 4 _1_x(1) - 6 t(1)_1 - 4 _1_x(1) + 3 s(2)_1 + 3 _1_x(2) - 7 t(2)_1 - 3 _1_x(2)
subject to
 eins0: s(0)_1 - _1_x(0) <= 0
 zwei0: t(0)_1 - _1_x(0) + s(0)_1 <= 0
 szenarioabhaengig0: s(0)_1 <= 9
 eins1: s(1)_1 - _1_x(1) <= 0
 zwei1: t(1)_1 - _1_x(1) + s(1)_1 <= 0
 szenarioabhaengig1: s(1)_1 <= 10
 eins2: s(2)_1 - _1_x(2) <= 0
 zwei2: t(2)_1 - _1_x(2) + s(2)_1 <= 0
 szenarioabhaengig2: s(2)_1 <= 17
 Material: 50 y_1 - 5 _1_x(0) + 5 s(0)_1 + 5 t(0)_1 - 7 _1_x(1) + 7 s(1)_1 + 7 t(1)_1 - 8 _1_x(2) + 8 s(2)_1 + 8 t(2)_1 >= 0
 Kapital: 2 _1_x(0) + 4 _1_x(1) + 3 _1_x(2) <= 90
bounds
 0 <= _1_x(0) <= 40
 0 <= s(0)_1
 0 <= t(0)_1 <= 40
 0 <= _1_x(1) <= 50
 0 <= s(1)_1
 0 <= t(1)_1 <= 50
 0 <= _1_x(2) <= 30
 0 <= s(2)_1
 0 <= t(2)_1 <= 30
 0 <= y_1
generals
 _1_x(0) s(0)_1 t(0)_1 _1_x(1) s(1)_1 t(1)_1 _1_x(2) s(2)_1 t(2)_1y_1
end